[[40, 32, 9, 25, 55, 18, 50, 44, 3, 24, 49, 16, 63, 23, 56, 43, 41, 42, 64, 22, 61, 28, 62, 73, 33, 51, 6, 68, 2, 30, 74, 48, 21, 47, 69, 36], [71, 60, 70, 20, 37, 5, 29, 15, 57, 13, 54, 52, 27, 45, 4, 75, 76, 26, 67, 34, 46, 8, 7, 35, 19, 53, 14, 59, 11, 66, 65, 38, 10, 31, 58, 72, 39, 12, 17]]